WARNING: for repeatability, setting FPU to use double precision
============================[ Problem Statistics ]=============================
|                                                                             |
|  Number of variables:           257                                         |
|  Number of clauses:            7374                                         |
|  Parse time:                   0.00 s                                       |
|                                                                             |
c ============================[ Search Statistics ]==============================
c | Conflicts |          ORIGINAL         |          LEARNT          | Progress |
c |           |    Vars  Clauses Literals |    Limit  Clauses Lit/Cl |          |
c ===============================================================================
We had 49 decisions of which only 0 were on extended
We had 35920 decisions of which only 0.562361 were on extended
We had 87781 decisions of which only 1.05262 were on extended
We had 224013 decisions of which only 2.74448 were on extended
We had 326054 decisions of which only 4.20667 were on extended
We had 482856 decisions of which only 5.78206 were on extended
We had 503267 decisions of which only 5.68625 were on extended
CAREFUL: the definition is falsified in conflict 67638 at DL 20 (has happened 1 times)
c ===============================================================================
restarts                  : 186
conflicts                 : 69964          (45165 /sec)
decisions                 : 529815         (0.00 % random) (342017 /sec)
propagations              : 1103498        (712353 /sec)
conflict literals         : 1129027        (8.11 % deleted)

conflicts w/ DIP found    : 24667          (35.26 % of conflicts)
conflicts w/ dangerous DIP: 1              (0.00 % of conflicts)
conflicts w/ DIP-learning : 325            (0.46 % of conflicts)
decisions on ext vars     : 29119          (5.50 % of decisions)
total ext vars            : 60          
tried delete ext vars     : 19          
deleted ext vars          : 19          
max ext vars              : 51          

Memory used               : 14.00 MB
CPU time                  : 1.54909 s
DIP computation time      : 0.199402 s (12.87 % of total time)
ER_sel time               : 0.05046 s
ER_add time               : 0.000198 s
ER_delC time              : 0 s
ER_delV time              : 0.00141 s
ER_sub time               : 0.060289 s
ER_stat time              : 0 s

UNSATISFIABLE
